45 47
82 51
95 72
66 38
6 74
50 85
23 82
87 98
69 66
73 55
4 120
47 108
12 101
32 110
61 61
17 122
29 53
80 96
62 90
35 130
19 102
91 95
92 66
77 97
93 60
60 122
56 101
73 141
87 122
41 112
45 152
91 161
8 81
15 94
82 78
78 150
24 135
17 150
34 150
38 166
29 111
12 156
73 191
17 155
20 107
47 185
27 144
21 128
48 184
16 163
63 137
35 179
57 130
85 169
68 166
105 222
102 170
39 188
92 173
61 183
32 190
17 239
80 169
57 180
89 179
66 222
28 169
48 249
104 237
78 249
85 199
96 196
12 191
64 183
17 178
25 251
90 230
70 186
66 229
33 286
67 291
55 292
39 202
59 224
58 261
8 294
71 210
11 268
106 263
98 299
75 316
29 251
87 258
14 252
33 264
23 304
101 244
11 269
48 303
82 250
